21° run output:
{
    "Function": "euclidA300.tsp",
    "Problem dimension": [
        249,
        262,
        178,
        246,
        47,
        146,
        80,
        232,
        18,
        276,
        102,
        186,
        212,
        182,
        236,
        63,
        32,
        251,
        34,
        43,
        174,
        21,
        103,
        139,
        228,
        147,
        202,
        199,
        57,
        233,
        75,
        239,
        65,
        59,
        42,
        68,
        292,
        210,
        134,
        154,
        92,
        153,
        238,
        265,
        287,
        279,
        44,
        188,
        135,
        30,
        31,
        288,
        171,
        33,
        166,
        4,
        94,
        190,
        256,
        222,
        291,
        278,
        140,
        168,
        179,
        286,
        216,
        151,
        259,
        99,
        61,
        194,
        267,
        243,
        149,
        72,
        217,
        264,
        70,
        39,
        229,
        244,
        41,
        152,
        208,
        133,
        118,
        144,
        245,
        76,
        71,
        252,
        254,
        206,
        161,
        185,
        227,
        19,
        55,
        258,
        247,
        213,
        164,
        123,
        285,
        293,
        156,
        15,
        8,
        219,
        10,
        58,
        268,
        242,
        183,
        226,
        205,
        40,
        201,
        284,
        180,
        45,
        184,
        299,
        273,
        100,
        87,
        136,
        209,
        96,
        12,
        97,
        120,
        23,
        141,
        26,
        0,
        126,
        114,
        6,
        235,
        220,
        169,
        165,
        294,
        104,
        298,
        224,
        214,
        261,
        275,
        181,
        109,
        81,
        29,
        132,
        53,
        112,
        211,
        17,
        192,
        82,
        37,
        48,
        95,
        257,
        269,
        241,
        177,
        263,
        281,
        66,
        234,
        35,
        27,
        282,
        271,
        158,
        175,
        60,
        62,
        124,
        221,
        277,
        197,
        260,
        110,
        16,
        157,
        172,
        101,
        14,
        50,
        73,
        2,
        187,
        253,
        237,
        193,
        163,
        11,
        191,
        280,
        113,
        13,
        289,
        83,
        160,
        255,
        131,
        119,
        143,
        138,
        274,
        88,
        207,
        69,
        195,
        266,
        22,
        74,
        200,
        130,
        51,
        77,
        145,
        9,
        93,
        297,
        116,
        162,
        106,
        117,
        272,
        121,
        198,
        98,
        28,
        85,
        89,
        122,
        159,
        20,
        240,
        91,
        223,
        84,
        148,
        196,
        167,
        46,
        78,
        230,
        5,
        290,
        248,
        170,
        189,
        173,
        107,
        215,
        142,
        24,
        128,
        86,
        296,
        125,
        64,
        137,
        270,
        204,
        67,
        155,
        203,
        250,
        295,
        127,
        3,
        79,
        7,
        231,
        49,
        54,
        90,
        36,
        129,
        176,
        115,
        38,
        56,
        283,
        25,
        150,
        105,
        108,
        218,
        111,
        225,
        52,
        1
    ],
    "Global Optimum": 0,
    "Algorithm": "Genetic algorithm",
    "Parameters": {
        "population": 30,
        "offspring": 30,
        "mutation probability": 0.0033333333333333335,
        "crossover probability": 0.9
    },
    "Fitness": 363963,
    "Solution": [
        249,
        262,
        178,
        246,
        47,
        146,
        80,
        232,
        18,
        276,
        102,
        186,
        212,
        182,
        236,
        63,
        32,
        251,
        34,
        43,
        174,
        21,
        103,
        139,
        228,
        147,
        202,
        199,
        57,
        233,
        75,
        239,
        65,
        59,
        42,
        68,
        292,
        210,
        134,
        154,
        92,
        153,
        238,
        265,
        287,
        279,
        44,
        188,
        135,
        30,
        31,
        288,
        171,
        33,
        166,
        4,
        94,
        190,
        256,
        222,
        291,
        278,
        140,
        168,
        179,
        286,
        216,
        151,
        259,
        99,
        61,
        194,
        267,
        243,
        149,
        72,
        217,
        264,
        70,
        39,
        229,
        244,
        41,
        152,
        208,
        133,
        118,
        144,
        245,
        76,
        71,
        252,
        254,
        206,
        161,
        185,
        227,
        19,
        55,
        258,
        247,
        213,
        164,
        123,
        285,
        293,
        156,
        15,
        8,
        219,
        10,
        58,
        268,
        242,
        183,
        226,
        205,
        40,
        201,
        284,
        180,
        45,
        184,
        299,
        273,
        100,
        87,
        136,
        209,
        96,
        12,
        97,
        120,
        23,
        141,
        26,
        0,
        126,
        114,
        6,
        235,
        220,
        169,
        165,
        294,
        104,
        298,
        224,
        214,
        261,
        275,
        181,
        109,
        81,
        29,
        132,
        53,
        112,
        211,
        17,
        192,
        82,
        37,
        48,
        95,
        257,
        269,
        241,
        177,
        263,
        281,
        66,
        234,
        35,
        27,
        282,
        271,
        158,
        175,
        60,
        62,
        124,
        221,
        277,
        197,
        260,
        110,
        16,
        157,
        172,
        101,
        14,
        50,
        73,
        2,
        187,
        253,
        237,
        193,
        163,
        11,
        191,
        280,
        113,
        13,
        289,
        83,
        160,
        255,
        131,
        119,
        143,
        138,
        274,
        88,
        207,
        69,
        195,
        266,
        22,
        74,
        200,
        130,
        51,
        77,
        145,
        9,
        93,
        297,
        116,
        162,
        106,
        117,
        272,
        121,
        198,
        98,
        28,
        85,
        89,
        122,
        159,
        20,
        240,
        91,
        223,
        84,
        148,
        196,
        167,
        46,
        78,
        230,
        5,
        290,
        248,
        170,
        189,
        173,
        107,
        215,
        142,
        24,
        128,
        86,
        296,
        125,
        64,
        137,
        270,
        204,
        67,
        155,
        203,
        250,
        295,
        127,
        3,
        79,
        7,
        231,
        49,
        54,
        90,
        36,
        129,
        176,
        115,
        38,
        56,
        283,
        25,
        150,
        105,
        108,
        218,
        111,
        225,
        52,
        1
    ],
    "Nb of functions evaluations": 50010,
    "Computational time in seconds": 142.1973259449005,
    "Stopping criterion in evaluations": 50000
}